n_res = 4;
rc = [ 10, 8, 13, 12 ];
n_tasks = 30;
d = [ 1, 1, 1, 7, 6, 4, 5, 8, 7, 8, 1, 2, 3, 10, 10, 2, 10, 1, 1, 7, 9, 9, 4, 4, 1, 1, 8, 1, 2, 7 ];
rr = [| 0, 0, 8, 0, 0, 1, 0, 0, 0, 9, 7, 0, 0, 0, 3, 0, 0, 0, 0, 0, 0, 0, 0, 0, 0, 9, 0, 0, 0, 0
      | 0, 3, 0, 0, 0, 0, 0, 0, 0, 0, 0, 3, 0, 7, 0, 0, 0, 0, 0, 2, 0, 0, 4, 3, 0, 0, 0, 0, 8, 4
      | 0, 0, 0, 2, 0, 0, 10, 3, 0, 0, 0, 0, 0, 0, 0, 3, 4, 0, 7, 0, 0, 7, 0, 0, 4, 0, 0, 0, 0, 0
      | 5, 0, 0, 0, 3, 0, 0, 0, 1, 0, 0, 0, 6, 0, 0, 0, 0, 3, 0, 0, 10, 0, 0, 0, 0, 0, 9, 1, 0, 0 |];
suc = [ { 2 }, 
        { 3 }, 
        { 4 }, 
        { 5 }, 
        { 6 }, 
        { 7 }, 
        { 8 }, 
        { 9 }, 
        { 10 }, 
        { 11 }, 
        { 12 }, 
        { 13 }, 
        { 14 }, 
        { 15 }, 
        { 16 }, 
        { 17 }, 
        { 18 }, 
        { 19 }, 
        { 20 }, 
        { 21 }, 
        { 22 }, 
        { 23 }, 
        { 24 }, 
        { 25 }, 
        { 26 }, 
        { 27 }, 
        { 28 }, 
        { 29 }, 
        { 30 }, 
        {  }]; 
